60
2 3
1 36
28 50
7 91
19 96
7 61
24 45
13 16
20 20
14 23
10 25
30 31
5 37
16 12
29 17
9 53
29 60
19 59
1 38
23 98
28 9
5 1
16 84
23 57
20 6
30 18
28 89
27 1
4 12
30 23
5 42
23 99
9 15
5 14
21 62
20 37
10 20
23 75
11 5
30 57
5 62
20 91
3 22
26 79
21 7
30 17
17 75
12 5
18 76
19 46
4 80
9 58
24 23
8 2
30 67
18 89
12 84
28 30
8 74
20 95
